%chk=Li.chk
%nprocs=2
%mem=1000mw
# CCSD(T,maxcyc=100,full)/GEN gfinput geom=check scf=xqc

BEB step 6: CCSD(T) for neutral Li; active core

0 2

Li     0 
S   9   1.00
   5988.0000000              0.0001330        
    898.9000000              0.0010250        
    205.9000000              0.0052720        
     59.2400000              0.0209290        
     19.8700000              0.0663400        
      7.4060000              0.1657750        
      2.9300000              0.3150380        
      1.1890000              0.3935230        
      0.4798000              0.1908700        
S   9   1.00
   5988.0000000             -0.0000210        
    898.9000000             -0.0001610        
    205.9000000             -0.0008200        
     59.2400000             -0.0033260        
     19.8700000             -0.0105190        
      7.4060000             -0.0280970        
      2.9300000             -0.0559360        
      1.1890000             -0.0992370        
      0.4798000             -0.1121890        
S   1   1.00
      0.0750900              1.0000000        
S   1   1.00
      0.0283200              1.0000000        
S   1   1.00
      1.9740000              1.0000000        
S   1   1.00
      0.6830000              1.0000000        
P   3   1.00
      3.2660000              0.0086300        
      0.6511000              0.0475380        
      0.1696000              0.2097720        
P   1   1.00
      0.0557800              1.0000000        
P   1   1.00
      0.0205000              1.0000000        
P   1   1.00
      7.3200000              1.0000000        
P   1   1.00
      1.8750000              1.0000000        
D   1   1.00
      0.1874000              1.0000000        
D   1   1.00
      0.0801000              1.0000000        
D   1   1.00
      4.9120000              1.0000000        
F   1   1.00
      0.1829000              1.0000000        
****

