%chk=ch2.chk
%nprocs=4
%mem=1000mw
# EPT(OVGF+P3,ReadOrbitals)/GEN gfinput geom=check guess=check scf=xqc pop(all,thresh=1)

BEB step 4: EPT B for ch2

0 3

C H 0
6-311+G(d,p)
****

1 4 1 2

