%chk=gacl.chk
%nprocs=4
%mem=1000mw
# CCSD(T,maxcyc=100)/GEN gfinput geom=check scf=xqc

BEB step 6: CCSD(T) for neutral gacl

0 1

@t_plusd.gbs
Ga 0
cc-pVTZ
****

