%chk=gacl.chk
%nprocs=4
%mem=1000mw
# CCSD(T,maxcyc=100)/GEN gfinput geom=check scf=xqc guess=check

BEB step 7: high-spin CCSD(T) for cation of gacl

1 4

@t_plusd.gbs
Ga 0
cc-pVTZ
****

