%chk=gacl.chk
%nprocs=4
%mem=1000mw
# EPT(OVGF+P3,ReadOrbitals)/GEN gfinput geom=check guess=check scf=xqc pop(all,thresh=1)

BEB step 4: EPT B for gacl

0 1

Cl Ga 0
6-311+G(d,p)
****

1 10 10 10

