%chk=h2o.chk
%nprocs=4
%mem=1000mw
# CCSD(T,maxcyc=100)/GEN gfinput geom=check scf=xqc

BEB step 8: low-spin CCSD(T) for cation of h2o

1 2

H O 0
cc-pVTZ
****

