%chk=h2o.chk
%nprocs=4
%mem=1000mw
# CCSD(T,maxcyc=100)/GEN gfinput geom=check scf=xqc guess=check

BEB step 9: high-spin CCSD(T) for dication of h2o

2 3

H O 0
cc-pVTZ
****

