%chk=h2o.chk
%nprocs=4
%mem=1000mw
# CCSD(T,maxcyc=100)/GEN gfinput geom=check scf=xqc

BEB step 6: CCSD(T) for neutral h2o

0 1

H O 0
cc-pVTZ
****

