%chk=thf3.chk
%nprocs=8
%mem=2000mw
# EPT(OVGF+P3,ReadOrbitals,window=(13,0))/GEN gfinput geom=check guess=check scf=xqc pop(all,thresh=1) pseudo=read

BEB step 5: cation EPT for VIE2 for thf3; only 12 cores frozen

1 3

F 0
6-311+G(d,p)
****
Th 0
SDD
****

Th 0
SDD

17 17 15 15

