%chk=thf3.chk
%nprocs=8
%mem=2000mw
# CCSD(T,maxcyc=100,window=(13,0))/GEN gfinput geom=check scf=xqc pseudo=read guess=check

BEB step 7: high-spin CCSD(T) for cation of thf3; only 12 cores frozen

1 3

F 0
cc-pVTZ
****
Th 0
SDD
****

Th 0
SDD

