%chk=no2.chk
%nprocs=6
%mem=1000mw
# EPT(OVGF+P3,ReadOrbitals)/GEN gfinput geom=check guess=check scf=xqc pop(all,thresh=1)

BEB step 5: cation EPT for VIE2 for no2

1 3

N O 0
6-311+G(d,p)
****

9 9 7 7

