%chk=no2.chk
%nprocs=6
%mem=1000mw
# CCSD(T,maxcyc=100)/GEN gfinput geom=check scf=xqc guess=check

BEB step 7: high-spin CCSD(T) for cation of no2

1 3

N O 0
cc-pVTZ
****

