%chk=no2.chk
%nprocs=6
%mem=1000mw
# HF/GEN gfinput geom=check IOP(6/81=3) scf=xqc pop(all,thresh=1)

BEB step 2: Hartree-Fock B and U for no2

0 2

N O 0
6-311G(d,p)
****

