%chk=no2.chk
%nprocs=6
%mem=1000mw
# CCSD(T,maxcyc=100)/GEN gfinput geom=check scf=xqc guess=check

BEB step 9: high-spin CCSD(T) for dication of no2

2 4

N O 0
cc-pVTZ
****

