%chk=no2.chk
%nprocs=6
%mem=1000mw
# CCSD(T,maxcyc=100)/GEN gfinput geom=check scf=xqc

BEB step 10: low-spin CCSD(T) for dication of no2

2 2

N O 0
cc-pVTZ
****

