%chk=ch4.chk
%nprocs=4
%mem=1000mw
# CCSD(T,maxcyc=100)/GEN gfinput geom=check scf=xqc

BEB step 6: CCSD(T) for neutral ch4

0 1

C H 0
cc-pVTZ
****

