%chk=ch4.chk
%nprocs=4
%mem=1000mw
# CCSD(T,maxcyc=100)/GEN gfinput geom=check scf=xqc guess=check

BEB step 9: high-spin CCSD(T) for dication of ch4

2 3

C H 0
cc-pVTZ
****

