%chk=ch3.chk
%nprocs=4
%mem=1000mw
# CCSD(T,maxcyc=100)/GEN gfinput geom=check scf=xqc

BEB step 8: low-spin CCSD(T) for cation of ch3

1 1

C H 0
cc-pVTZ
****

