%chk=ch3.chk
%nprocs=4
%mem=1000mw
# B3LYP/GEN gfinput OPT FREQ scf=xqc 6D

BEB step 1: geom and freqs for ch3

0 2
 C                 -0.00000000   -0.00000000    0.00000000
 H                  0.00000000   -1.05892867   -0.00000000
 H                 -0.91705913    0.52946433   -0.00000000
 H                  0.91705913    0.52946433   -0.00000000

C H 0
6-31G(d)
****

