%chk=ch3.chk
%nprocs=4
%mem=1000mw
# CCSD(T,maxcyc=100)/GEN gfinput geom=check scf=xqc

BEB step 10: low-spin CCSD(T) for dication of ch3

2 2

C H 0
cc-pVTZ
****

