%chk=h2s.chk
%nprocs=4
%mem=1000mw
# CCSD(T,maxcyc=100)/GEN gfinput geom=check scf=xqc

BEB step 10: low-spin CCSD(T) for dication of h2s

2 1

H 0
cc-pVTZ
****
@t_plusd.gbs

