%chk=h2s.chk
%nprocs=4
%mem=1000mw
# CCSD(T,maxcyc=100)/GEN gfinput geom=check scf=xqc guess=check

BEB step 7: high-spin CCSD(T) for cation of h2s

1 4

H 0
cc-pVTZ
****
@t_plusd.gbs

