%chk=h2s.chk
%nprocs=4
%mem=1000mw
# HF/GEN gfinput geom=check IOP(6/81=3) pseudo=read scf=xqc pop(all,thresh=1)

BEB step 3: pseudopotential B and U for h2s

0 1

H 0
6-311G(d,p)
****
S 0
SDDall
****
S 0
 D   1 1.00       0.000000000000
      6.5000000000e-01  0.1000000000D+01
****

S 0
SDDall

