%chk=ZnEt2.chk
%nprocs=6
%mem=4000mw
# B3LYP/GEN gfinput OPT FREQ scf=xqc 6D

BEB step 1: geom and freqs for ZnEt2

0 1
Zn          0.000000     0.000000     0.092059
C           0.000000     1.933945     0.090127
C           1.360973     2.577345    -0.233751
H          -0.346594     2.294125     1.069841
H          -0.750690     2.294418    -0.628225
H           1.311324     3.675407    -0.223010
H           2.134924     2.288870     0.488877
H           1.727459     2.287037    -1.226622
C           0.000000    -1.933945     0.090127
C          -1.360973    -2.577345    -0.233751
H           0.346594    -2.294125     1.069841
H           0.750690    -2.294418    -0.628225
H          -1.311324    -3.675407    -0.223010
H          -2.134924    -2.288870     0.488877
H          -1.727459    -2.287037    -1.226622

C H 0
6-31G(d)
****
Zn 0
6-31G(d)
****

