%chk=ZnEt2.chk
%nprocs=8
%mem=2000mw
# CCSD(T,maxcyc=100)/GEN gfinput geom=check scf=xqc

BEB step 6: CCSD(T) for neutral ZnEt2

0 1

C H 0
cc-pVTZ
****
Zn 0
cc-pVTZ
****

