%chk=cef4.chk
%nprocs=8
%mem=2000mw
# CCSD(T,maxcyc=100)/GEN gfinput geom=check scf=xqc pseudo=read

BEB step 8: low-spin CCSD(T) for cation of cef4

1 2

F 0
cc-pVTZ
****
Ce 0
SDD
****

Ce 0
SDD

