%chk=cef4.chk
%nprocs=8
%mem=2000mw
# B3LYP/GEN gfinput OPT FREQ scf=xqc pseudo=read

BEB step 1: geom and freqs for cef4

0 1
 Ce                -0.00000000    0.00000000   -0.00000000
 F                  0.00000000   -0.00000000    2.21000003
 F                 -0.00000000   -2.08360801   -0.73666668
 F                 -1.80445746    1.04180400   -0.73666668
 F                  1.80445746    1.04180400   -0.73666668

F 0
6-31G(d)
****
Ce 0
SDD
****

Ce 0
SDD

