%chk=cef4.chk
%nprocs=8
%mem=2000mw
# HF/GEN gfinput geom=check IOP(6/81=3) pseudo=read scf=xqc pop(all,thresh=1)

BEB step 3: pseudopotential B and U for cef4

0 1

F 0
6-311G(d,p)
****
Ce 0
SDD
****

Ce 0
SDD

