%chk=cef4.chk
%nprocs=8
%mem=2000mw
# CCSD(T,maxcyc=100)/GEN gfinput geom=check scf=xqc pseudo=read guess=check

BEB step 7: high-spin CCSD(T) for cation of cef4

1 4

F 0
cc-pVTZ
****
Ce 0
SDD
****

Ce 0
SDD

