%chk=o2.chk
%nprocs=4
%mem=1000mw
# CCSD(T,maxcyc=100)/GEN gfinput geom=check scf=xqc

BEB step 10: low-spin CCSD(T) for dication of o2

2 1

O 0
cc-pVTZ
****

